NAME : cgl_45.8596.tour
COMMENT : Length = 8596
COMMENT : Found by LKH-3 [Keld Helsgaun] Fri Nov  8 19:20:29 2024
TYPE : TOUR
DIMENSION : 45
TOUR_SECTION
18
17
28
26
23
25
19
22
21
24
27
20
29
30
31
32
33
35
36
34
37
38
43
41
42
40
39
44
45
1
2
3
4
5
6
7
8
12
10
11
9
13
14
15
16
-1
EOF
